(set-info :source |printed by MathSAT|)
(declare-fun hhv_ULTIMATE.start_L19_0_Int () Int)
(declare-fun .x.377 () Int)
(declare-fun hbv_ULTIMATE.start_L16-4_1_Array_Int_Int () (Array Int Int))
(declare-fun .x.378 () (Array Int Int))
(declare-fun hhv_ULTIMATE.start_L19_2_Array_Int_Int () (Array Int Int))
(declare-fun .x.379 () (Array Int Int))
(declare-fun hhv_ULTIMATE.start_L19_3_Array_Int_Array_Int_Int () (Array Int (Array Int Int)))
(declare-fun .x.380 () (Array Int (Array Int Int)))
(declare-fun hhv_ULTIMATE.start_L19_4_Array_Int_Array_Int_Int () (Array Int (Array Int Int)))
(declare-fun .x.381 () (Array Int (Array Int Int)))
(declare-fun hhv_ULTIMATE.start_L19_5_Int () Int)
(declare-fun .x.382 () Int)
(declare-fun hhv_ULTIMATE.start_L19_6_Int () Int)
(declare-fun .x.383 () Int)
(declare-fun hhv_ULTIMATE.start_L19_7_Array_Int_Int () (Array Int Int))
(declare-fun .x.384 () (Array Int Int))
(declare-fun hhv_ULTIMATE.start_L19_8_Array_Int_Int () (Array Int Int))
(declare-fun .x.385 () (Array Int Int))
(declare-fun hhv_ULTIMATE.start_L19_9_Int () Int)
(declare-fun .x.386 () Int)
(declare-fun hhv_ULTIMATE.start_L19_10_Int () Int)
(declare-fun .x.387 () Int)
(declare-fun hhv_ULTIMATE.start_L19_11_Int () Int)
(declare-fun .x.388 () Int)
(declare-fun hbv_ULTIMATE.start_L16-4_12_Int () Int)
(declare-fun .x.389 () Int)
(declare-fun hbv_ULTIMATE.start_L16-4_13_Int () Int)
(declare-fun .x.390 () Int)
(declare-fun hhv_ULTIMATE.start_L19_14_Int () Int)
(declare-fun .x.391 () Int)
(declare-fun hhv_ULTIMATE.start_L19_15_Int () Int)
(declare-fun .x.392 () Int)
(declare-fun hhv_ULTIMATE.start_L19_16_Int () Int)
(declare-fun .x.393 () Int)
(declare-fun hhv_ULTIMATE.start_L19_17_Int () Int)
(declare-fun .x.394 () Int)
(declare-fun hhv_ULTIMATE.start_L19_18_Int () Int)
(declare-fun .x.395 () Int)
(declare-fun hhv_ULTIMATE.start_L19_19_Int () Int)
(declare-fun .x.396 () Int)
(declare-fun hhv_ULTIMATE.start_L19_20_Int () Int)
(declare-fun .x.397 () Int)
(declare-fun hhv_ULTIMATE.start_L19_21_Int () Int)
(declare-fun .x.398 () Int)
(declare-fun hhv_ULTIMATE.start_L19_22_Int () Int)
(declare-fun .x.399 () Int)
(declare-fun hhv_ULTIMATE.start_L19_23_Int () Int)
(declare-fun .x.400 () Int)
(declare-fun hbv_ULTIMATE.start_L16-4_24_Int () Int)
(declare-fun .x.401 () Int)
(declare-fun hhv_ULTIMATE.start_L19_25_Int () Int)
(declare-fun .x.402 () Int)
(declare-fun hbv_ULTIMATE.start_L16-4_26_Int () Int)
(declare-fun .x.403 () Int)
(declare-fun hhv_ULTIMATE.start_L19_27_Int () Int)
(declare-fun .x.404 () Int)
(declare-fun hbv_ULTIMATE.start_L16-4_28_Int () Int)
(declare-fun .x.405 () Int)
(declare-fun hhv_ULTIMATE.start_L19_29_Int () Int)
(declare-fun .x.406 () Int)
(declare-fun hhv_ULTIMATE.start_L19_30_Int () Int)
(declare-fun .x.407 () Int)
(declare-fun hhv_ULTIMATE.start_L19_31_Bool () Bool)
(declare-fun .x.408 () Bool)
(declare-fun .loc.4 () Bool)
(declare-fun .loc.7 () Bool)
(declare-fun .loc.5 () Bool)
(declare-fun .loc.8 () Bool)
(declare-fun .loc.6 () Bool)
(declare-fun .loc.9 () Bool)
(declare-fun hbv_ULTIMATE.start_L-1_1_Array_Int_Int () (Array Int Int))
(define-fun .def_8 () Int (! hhv_ULTIMATE.start_L19_0_Int :next |.x.377|))
(define-fun .def_10 () (Array Int Int) (! hbv_ULTIMATE.start_L16-4_1_Array_Int_Int :next |.x.378|))
(define-fun .def_12 () (Array Int Int) (! hhv_ULTIMATE.start_L19_2_Array_Int_Int :next |.x.379|))
(define-fun .def_14 () (Array Int (Array Int Int)) (! hhv_ULTIMATE.start_L19_3_Array_Int_Array_Int_Int :next |.x.380|))
(define-fun .def_16 () (Array Int (Array Int Int)) (! hhv_ULTIMATE.start_L19_4_Array_Int_Array_Int_Int :next |.x.381|))
(define-fun .def_18 () Int (! hhv_ULTIMATE.start_L19_5_Int :next |.x.382|))
(define-fun .def_20 () Int (! hhv_ULTIMATE.start_L19_6_Int :next |.x.383|))
(define-fun .def_22 () (Array Int Int) (! hhv_ULTIMATE.start_L19_7_Array_Int_Int :next |.x.384|))
(define-fun .def_24 () (Array Int Int) (! hhv_ULTIMATE.start_L19_8_Array_Int_Int :next |.x.385|))
(define-fun .def_26 () Int (! hhv_ULTIMATE.start_L19_9_Int :next |.x.386|))
(define-fun .def_28 () Int (! hhv_ULTIMATE.start_L19_10_Int :next |.x.387|))
(define-fun .def_30 () Int (! hhv_ULTIMATE.start_L19_11_Int :next |.x.388|))
(define-fun .def_32 () Int (! hbv_ULTIMATE.start_L16-4_12_Int :next |.x.389|))
(define-fun .def_34 () Int (! hbv_ULTIMATE.start_L16-4_13_Int :next |.x.390|))
(define-fun .def_36 () Int (! hhv_ULTIMATE.start_L19_14_Int :next |.x.391|))
(define-fun .def_38 () Int (! hhv_ULTIMATE.start_L19_15_Int :next |.x.392|))
(define-fun .def_40 () Int (! hhv_ULTIMATE.start_L19_16_Int :next |.x.393|))
(define-fun .def_42 () Int (! hhv_ULTIMATE.start_L19_17_Int :next |.x.394|))
(define-fun .def_44 () Int (! hhv_ULTIMATE.start_L19_18_Int :next |.x.395|))
(define-fun .def_46 () Int (! hhv_ULTIMATE.start_L19_19_Int :next |.x.396|))
(define-fun .def_48 () Int (! hhv_ULTIMATE.start_L19_20_Int :next |.x.397|))
(define-fun .def_50 () Int (! hhv_ULTIMATE.start_L19_21_Int :next |.x.398|))
(define-fun .def_52 () Int (! hhv_ULTIMATE.start_L19_22_Int :next |.x.399|))
(define-fun .def_54 () Int (! hhv_ULTIMATE.start_L19_23_Int :next |.x.400|))
(define-fun .def_56 () Int (! hbv_ULTIMATE.start_L16-4_24_Int :next |.x.401|))
(define-fun .def_58 () Int (! hhv_ULTIMATE.start_L19_25_Int :next |.x.402|))
(define-fun .def_60 () Int (! hbv_ULTIMATE.start_L16-4_26_Int :next |.x.403|))
(define-fun .def_62 () Int (! hhv_ULTIMATE.start_L19_27_Int :next |.x.404|))
(define-fun .def_64 () Int (! hbv_ULTIMATE.start_L16-4_28_Int :next |.x.405|))
(define-fun .def_66 () Int (! hhv_ULTIMATE.start_L19_29_Int :next |.x.406|))
(define-fun .def_68 () Int (! hhv_ULTIMATE.start_L19_30_Int :next |.x.407|))
(define-fun .def_70 () Bool (! hhv_ULTIMATE.start_L19_31_Bool :next |.x.408|))
(define-fun .def_72 () Bool (! .loc.4 :next |.loc.7|))
(define-fun .def_74 () Bool (! .loc.5 :next |.loc.8|))
(define-fun .def_76 () Bool (! .loc.6 :next |.loc.9|))
(define-fun .def_96 () (Array Int Int) (! hbv_ULTIMATE.start_L-1_1_Array_Int_Int :next |.xtv.1|))
(define-fun .def_81 () Bool (not .def_74))
(define-fun .def_78 () Bool (not .def_72))
(define-fun .def_387 () Bool (and .def_78 .def_81))
(define-fun .def_86 () Bool (not .def_76))
(define-fun .def_388 () Bool (and .def_86 .def_387))
(define-fun .def_381 () Bool (= .def_10 .def_12))
(define-fun .def_380 () Bool (= .def_22 .def_24))
(define-fun .def_382 () Bool (and .def_380 .def_381))
(define-fun .def_379 () Bool (= .def_18 .def_20))
(define-fun .def_383 () Bool (and .def_379 .def_382))
(define-fun .def_378 () Bool (= .def_26 .def_28))
(define-fun .def_384 () Bool (and .def_378 .def_383))
(define-fun .def_377 () Bool (not .def_70))
(define-fun .def_385 () Bool (and .def_377 .def_384))
(define-fun .def_376 () Bool (= .def_14 .def_16))
(define-fun .def_386 () Bool (and .def_376 .def_385))
(define-fun .def_389 () Bool (! (and .def_386 .def_388) :init true))
(define-fun .def_373 () Bool (= .def_70 .x.408))
(define-fun .def_371 () Bool (= .def_28 .x.387))
(define-fun .def_369 () Bool (= .def_24 .x.385))
(define-fun .def_367 () Bool (= .def_20 .x.383))
(define-fun .def_365 () Bool (= .def_16 .x.381))
(define-fun .def_363 () Bool (= .def_8 .x.377))
(define-fun .def_362 () Bool (= .def_12 .x.379))
(define-fun .def_364 () Bool (and .def_362 .def_363))
(define-fun .def_366 () Bool (and .def_364 .def_365))
(define-fun .def_368 () Bool (and .def_366 .def_367))
(define-fun .def_370 () Bool (and .def_368 .def_369))
(define-fun .def_372 () Bool (and .def_370 .def_371))
(define-fun .def_374 () Bool (and .def_372 .def_373))
(define-fun .def_343 () Bool (= .x.403 0))
(define-fun .def_340 () (Array Int Int) (store .def_10 .def_34 0))
(define-fun .def_341 () (Array Int Int) (store .def_340 .def_64 0))
(define-fun .def_342 () Bool (= .x.378 .def_341))
(define-fun .def_344 () Bool (and .def_342 .def_343))
(define-fun .def_345 () Bool (or .def_70 .def_344))
(define-fun .def_338 () Bool (= .x.400 .x.403))
(define-fun .def_339 () Bool (or .x.408 .def_338))
(define-fun .def_346 () Bool (and .def_339 .def_345))
(define-fun .def_347 () Bool (and .def_76 .def_346))
(define-fun .def_348 () Bool (and .def_78 .def_347))
(define-fun .def_349 () Bool (and .def_81 .def_348))
(define-fun .def_350 () Bool (and .loc.7 .def_349))
(define-fun .def_327 () Bool (and .def_70 .def_72))
(define-fun .def_328 () Bool (and .def_74 .def_327))
(define-fun .def_233 () Bool (not .loc.7))
(define-fun .def_329 () Bool (and .def_233 .def_328))
(define-fun .def_330 () Bool (and .def_86 .def_329))
(define-fun .def_184 () Bool (= .def_64 .x.405))
(define-fun .def_331 () Bool (and .def_184 .def_330))
(define-fun .def_186 () Bool (= .def_60 .x.403))
(define-fun .def_332 () Bool (and .def_186 .def_331))
(define-fun .def_188 () Bool (= .def_56 .x.401))
(define-fun .def_333 () Bool (and .def_188 .def_332))
(define-fun .def_88 () Bool (= .def_54 .x.400))
(define-fun .def_334 () Bool (and .def_88 .def_333))
(define-fun .def_191 () Bool (= .def_34 .x.390))
(define-fun .def_335 () Bool (and .def_191 .def_334))
(define-fun .def_193 () Bool (= .def_32 .x.389))
(define-fun .def_336 () Bool (and .def_193 .def_335))
(define-fun .def_195 () Bool (= .def_10 .x.378))
(define-fun .def_337 () Bool (and .def_195 .def_336))
(define-fun .def_351 () Bool (or .def_337 .def_350))
(define-fun .def_297 () Bool (<= 100000 .def_52))
(define-fun .def_325 () Bool (or .def_70 .def_297))
(define-fun .def_280 () Bool (and .def_72 .def_74))
(define-fun .def_316 () Bool (and .def_233 .def_280))
(define-fun .def_317 () Bool (and .def_86 .def_316))
(define-fun .def_318 () Bool (and .def_184 .def_317))
(define-fun .def_319 () Bool (and .def_186 .def_318))
(define-fun .def_320 () Bool (and .def_188 .def_319))
(define-fun .def_321 () Bool (and .def_88 .def_320))
(define-fun .def_322 () Bool (and .def_191 .def_321))
(define-fun .def_323 () Bool (and .def_193 .def_322))
(define-fun .def_324 () Bool (and .def_195 .def_323))
(define-fun .def_326 () Bool (and .def_324 .def_325))
(define-fun .def_352 () Bool (or .def_326 .def_351))
(define-fun .def_175 () Bool (= .def_46 .x.396))
(define-fun .def_79 () Bool (= .def_14 .x.380))
(define-fun .def_227 () Bool (and .def_79 .def_175))
(define-fun .def_174 () Bool (= .def_52 .x.399))
(define-fun .def_228 () Bool (and .def_174 .def_227))
(define-fun .def_177 () Bool (= .def_66 .x.406))
(define-fun .def_229 () Bool (and .def_177 .def_228))
(define-fun .def_314 () Bool (and .loc.9 .def_229))
(define-fun .def_84 () Bool (not .loc.8))
(define-fun .def_315 () Bool (and .def_84 .def_314))
(define-fun .def_353 () Bool (and .def_315 .def_352))
(define-fun .def_299 () Int (* 4 .def_52))
(define-fun .def_300 () Int (+ .def_32 .def_299))
(define-fun .def_301 () (Array Int Int) (select .def_14 .def_64))
(define-fun .def_302 () Int (select .def_301 .def_300))
(define-fun .def_307 () Int (+ .def_302 (- 1)))
(define-fun .def_306 () Int (+ .def_299 .def_56))
(define-fun .def_305 () (Array Int Int) (select .def_14 .def_34))
(define-fun .def_308 () (Array Int Int) (store .def_305 .def_306 .def_307))
(define-fun .def_309 () (Array Int (Array Int Int)) (store .def_14 .def_34 .def_308))
(define-fun .def_310 () Bool (= .x.380 .def_309))
(define-fun .def_298 () Bool (not .def_297))
(define-fun .def_311 () Bool (and .def_298 .def_310))
(define-fun .def_312 () Bool (or .def_70 .def_311))
(define-fun .def_292 () Int (* (- 1) .x.399))
(define-fun .def_293 () Int (+ .def_52 .def_292))
(define-fun .def_294 () Bool (= .def_293 (- 1)))
(define-fun .def_295 () Bool (or .x.408 .def_294))
(define-fun .def_281 () Bool (and .loc.7 .def_280))
(define-fun .def_282 () Bool (and .loc.8 .def_281))
(define-fun .def_283 () Bool (and .def_86 .def_282))
(define-fun .def_284 () Bool (and .def_184 .def_283))
(define-fun .def_285 () Bool (and .def_186 .def_284))
(define-fun .def_286 () Bool (and .def_188 .def_285))
(define-fun .def_287 () Bool (and .def_88 .def_286))
(define-fun .def_288 () Bool (and .def_191 .def_287))
(define-fun .def_289 () Bool (and .def_193 .def_288))
(define-fun .def_290 () Bool (and .def_195 .def_289))
(define-fun .def_90 () Bool (not .loc.9))
(define-fun .def_291 () Bool (and .def_90 .def_290))
(define-fun .def_296 () Bool (and .def_291 .def_295))
(define-fun .def_313 () Bool (and .def_296 .def_312))
(define-fun .def_354 () Bool (or .def_313 .def_353))
(define-fun .def_277 () Bool (= .x.399 0))
(define-fun .def_278 () Bool (or .def_70 .def_277))
(define-fun .def_263 () Bool (and .def_177 .def_227))
(define-fun .def_264 () Bool (and .def_74 .def_263))
(define-fun .def_265 () Bool (and .def_78 .def_264))
(define-fun .def_266 () Bool (and .loc.7 .def_265))
(define-fun .def_267 () Bool (and .loc.8 .def_266))
(define-fun .def_268 () Bool (and .def_86 .def_267))
(define-fun .def_269 () Bool (and .def_184 .def_268))
(define-fun .def_270 () Bool (and .def_186 .def_269))
(define-fun .def_271 () Bool (and .def_188 .def_270))
(define-fun .def_272 () Bool (and .def_88 .def_271))
(define-fun .def_273 () Bool (and .def_191 .def_272))
(define-fun .def_274 () Bool (and .def_193 .def_273))
(define-fun .def_275 () Bool (and .def_195 .def_274))
(define-fun .def_276 () Bool (and .def_90 .def_275))
(define-fun .def_279 () Bool (and .def_276 .def_278))
(define-fun .def_355 () Bool (or .def_279 .def_354))
(define-fun .def_246 () Bool (and .def_70 .def_79))
(define-fun .def_247 () Bool (and .def_175 .def_246))
(define-fun .def_248 () Bool (and .def_174 .def_247))
(define-fun .def_249 () Bool (and .def_177 .def_248))
(define-fun .def_250 () Bool (and .def_72 .def_249))
(define-fun .def_251 () Bool (and .def_81 .def_250))
(define-fun .def_252 () Bool (and .loc.8 .def_251))
(define-fun .def_253 () Bool (and .def_233 .def_252))
(define-fun .def_254 () Bool (and .def_86 .def_253))
(define-fun .def_255 () Bool (and .def_184 .def_254))
(define-fun .def_256 () Bool (and .def_186 .def_255))
(define-fun .def_257 () Bool (and .def_188 .def_256))
(define-fun .def_258 () Bool (and .def_88 .def_257))
(define-fun .def_259 () Bool (and .def_191 .def_258))
(define-fun .def_260 () Bool (and .def_193 .def_259))
(define-fun .def_261 () Bool (and .def_195 .def_260))
(define-fun .def_262 () Bool (and .def_90 .def_261))
(define-fun .def_356 () Bool (or .def_262 .def_355))
(define-fun .def_205 () Bool (<= 100000 .def_58))
(define-fun .def_244 () Bool (or .def_70 .def_205))
(define-fun .def_230 () Bool (and .def_72 .def_229))
(define-fun .def_231 () Bool (and .def_81 .def_230))
(define-fun .def_232 () Bool (and .loc.8 .def_231))
(define-fun .def_234 () Bool (and .def_232 .def_233))
(define-fun .def_235 () Bool (and .def_86 .def_234))
(define-fun .def_236 () Bool (and .def_184 .def_235))
(define-fun .def_237 () Bool (and .def_186 .def_236))
(define-fun .def_238 () Bool (and .def_188 .def_237))
(define-fun .def_239 () Bool (and .def_88 .def_238))
(define-fun .def_240 () Bool (and .def_191 .def_239))
(define-fun .def_241 () Bool (and .def_193 .def_240))
(define-fun .def_242 () Bool (and .def_195 .def_241))
(define-fun .def_243 () Bool (and .def_90 .def_242))
(define-fun .def_245 () Bool (and .def_243 .def_244))
(define-fun .def_357 () Bool (or .def_245 .def_356))
(define-fun .def_225 () Bool (= .def_58 .x.402))
(define-fun .def_223 () Bool (= .def_36 .x.391))
(define-fun .def_222 () Bool (= .def_44 .x.395))
(define-fun .def_224 () Bool (and .def_222 .def_223))
(define-fun .def_226 () Bool (and .def_224 .def_225))
(define-fun .def_358 () Bool (and .def_226 .def_357))
(define-fun .def_208 () Int (* 4 .def_58))
(define-fun .def_209 () Int (+ .def_30 .def_208))
(define-fun .def_210 () (Array Int Int) (select .def_14 .def_38))
(define-fun .def_211 () Int (select .def_210 .def_209))
(define-fun .def_215 () Int (+ .def_211 1))
(define-fun .def_213 () Int (+ .def_40 .def_208))
(define-fun .def_214 () (Array Int Int) (select .def_14 .def_48))
(define-fun .def_216 () (Array Int Int) (store .def_214 .def_213 .def_215))
(define-fun .def_217 () (Array Int (Array Int Int)) (store .def_14 .def_48 .def_216))
(define-fun .def_218 () Bool (= .x.380 .def_217))
(define-fun .def_206 () Bool (not .def_205))
(define-fun .def_219 () Bool (and .def_206 .def_218))
(define-fun .def_220 () Bool (or .def_70 .def_219))
(define-fun .def_199 () Int (* (- 1) .x.402))
(define-fun .def_200 () Int (+ .def_58 .def_199))
(define-fun .def_201 () Bool (= .def_200 (- 1)))
(define-fun .def_202 () Bool (or .x.408 .def_201))
(define-fun .def_176 () Bool (and .def_174 .def_175))
(define-fun .def_178 () Bool (and .def_176 .def_177))
(define-fun .def_179 () Bool (and .def_72 .def_178))
(define-fun .def_180 () Bool (and .def_81 .def_179))
(define-fun .def_181 () Bool (and .loc.7 .def_180))
(define-fun .def_182 () Bool (and .def_84 .def_181))
(define-fun .def_183 () Bool (and .def_86 .def_182))
(define-fun .def_185 () Bool (and .def_183 .def_184))
(define-fun .def_187 () Bool (and .def_185 .def_186))
(define-fun .def_189 () Bool (and .def_187 .def_188))
(define-fun .def_190 () Bool (and .def_88 .def_189))
(define-fun .def_192 () Bool (and .def_190 .def_191))
(define-fun .def_194 () Bool (and .def_192 .def_193))
(define-fun .def_196 () Bool (and .def_194 .def_195))
(define-fun .def_197 () Bool (and .def_90 .def_196))
(define-fun .def_203 () Bool (and .def_197 .def_202))
(define-fun .def_221 () Bool (and .def_203 .def_220))
(define-fun .def_359 () Bool (or .def_221 .def_358))
(define-fun .def_172 () Bool (= .def_68 .x.407))
(define-fun .def_170 () Bool (= .def_62 .x.404))
(define-fun .def_168 () Bool (= .def_50 .x.398))
(define-fun .def_166 () Bool (= .def_48 .x.397))
(define-fun .def_164 () Bool (= .def_42 .x.394))
(define-fun .def_162 () Bool (= .def_40 .x.393))
(define-fun .def_160 () Bool (= .def_38 .x.392))
(define-fun .def_158 () Bool (= .def_30 .x.388))
(define-fun .def_156 () Bool (= .def_26 .x.386))
(define-fun .def_154 () Bool (= .def_18 .x.382))
(define-fun .def_153 () Bool (= .def_22 .x.384))
(define-fun .def_155 () Bool (and .def_153 .def_154))
(define-fun .def_157 () Bool (and .def_155 .def_156))
(define-fun .def_159 () Bool (and .def_157 .def_158))
(define-fun .def_161 () Bool (and .def_159 .def_160))
(define-fun .def_163 () Bool (and .def_161 .def_162))
(define-fun .def_165 () Bool (and .def_163 .def_164))
(define-fun .def_167 () Bool (and .def_165 .def_166))
(define-fun .def_169 () Bool (and .def_167 .def_168))
(define-fun .def_171 () Bool (and .def_169 .def_170))
(define-fun .def_173 () Bool (and .def_171 .def_172))
(define-fun .def_360 () Bool (and .def_173 .def_359))
(define-fun .def_148 () Bool (= .x.382 0))
(define-fun .def_147 () Bool (= .x.386 0))
(define-fun .def_149 () Bool (and .def_147 .def_148))
(define-fun .def_145 () (Array Int Int) (store .def_10 0 0))
(define-fun .def_146 () Bool (= .def_96 .def_145))
(define-fun .def_150 () Bool (and .def_146 .def_149))
(define-fun .def_151 () Bool (or .def_70 .def_150))
(define-fun .def_124 () Bool (<= .x.377 .x.390))
(define-fun .def_125 () Bool (not .def_124))
(define-fun .def_122 () Bool (= .x.389 .x.407))
(define-fun .def_121 () Bool (= .x.393 .x.407))
(define-fun .def_123 () Bool (and .def_121 .def_122))
(define-fun .def_126 () Bool (and .def_123 .def_125))
(define-fun .def_119 () Int (select .def_96 .x.390))
(define-fun .def_120 () Bool (= .def_119 0))
(define-fun .def_127 () Bool (and .def_120 .def_126))
(define-fun .def_118 () Bool (= .x.389 0))
(define-fun .def_128 () Bool (and .def_118 .def_127))
(define-fun .def_116 () Bool (<= .x.377 .x.405))
(define-fun .def_117 () Bool (not .def_116))
(define-fun .def_129 () Bool (and .def_117 .def_128))
(define-fun .def_115 () Bool (= .x.401 .x.404))
(define-fun .def_130 () Bool (and .def_115 .def_129))
(define-fun .def_112 () (Array Int Int) (store .def_22 .x.390 400000))
(define-fun .def_113 () (Array Int Int) (store .def_112 .x.405 400000))
(define-fun .def_114 () Bool (= .x.384 .def_113))
(define-fun .def_131 () Bool (and .def_114 .def_130))
(define-fun .def_110 () Bool (= .x.397 .x.398))
(define-fun .def_132 () Bool (and .def_110 .def_131))
(define-fun .def_109 () Bool (= .x.398 .x.405))
(define-fun .def_133 () Bool (and .def_109 .def_132))
(define-fun .def_108 () Bool (= .x.388 .x.404))
(define-fun .def_134 () Bool (and .def_108 .def_133))
(define-fun .def_97 () (Array Int Int) (store .def_96 .x.390 1))
(define-fun .def_106 () Int (select .def_97 .x.405))
(define-fun .def_107 () Bool (= .def_106 0))
(define-fun .def_135 () Bool (and .def_107 .def_134))
(define-fun .def_105 () Bool (= .x.392 .x.394))
(define-fun .def_136 () Bool (and .def_105 .def_135))
(define-fun .def_104 () Bool (= .x.390 .x.394))
(define-fun .def_137 () Bool (and .def_104 .def_136))
(define-fun .def_102 () Bool (= .x.405 0))
(define-fun .def_103 () Bool (not .def_102))
(define-fun .def_138 () Bool (and .def_103 .def_137))
(define-fun .def_101 () Bool (= .x.402 0))
(define-fun .def_139 () Bool (and .def_101 .def_138))
(define-fun .def_100 () Bool (= .x.401 0))
(define-fun .def_140 () Bool (and .def_100 .def_139))
(define-fun .def_98 () (Array Int Int) (store .def_97 .x.405 1))
(define-fun .def_99 () Bool (= .x.378 .def_98))
(define-fun .def_141 () Bool (and .def_99 .def_140))
(define-fun .def_93 () Bool (= .x.390 0))
(define-fun .def_94 () Bool (not .def_93))
(define-fun .def_142 () Bool (and .def_94 .def_141))
(define-fun .def_143 () Bool (or .x.408 .def_142))
(define-fun .def_80 () Bool (and .def_78 .def_79))
(define-fun .def_82 () Bool (and .def_80 .def_81))
(define-fun .def_83 () Bool (and .loc.7 .def_82))
(define-fun .def_85 () Bool (and .def_83 .def_84))
(define-fun .def_87 () Bool (and .def_85 .def_86))
(define-fun .def_89 () Bool (and .def_87 .def_88))
(define-fun .def_91 () Bool (and .def_89 .def_90))
(define-fun .def_144 () Bool (and .def_91 .def_143))
(define-fun .def_152 () Bool (and .def_144 .def_151))
(define-fun .def_361 () Bool (or .def_152 .def_360))
(define-fun .def_375 () Bool (! (and .def_361 .def_374) :trans true))
(define-fun .def_390 () Bool (and .def_72 .def_81))
(define-fun .def_391 () Bool (and .def_76 .def_390))
(define-fun .def_392 () Bool (and .def_70 .def_391))
(define-fun .def_393 () Bool (! (not .def_392) :invar-property 0))
(assert true)
